24
0 6 4 11 14 18 23 7 14 10 11 11 2 9 15 3 2 8 10 17 4 1 4 19 13 13 1 6 2 15 9 5 9 20 0 19 12 5 16 15 20 3 1 5 1 3 17 0 18 22 13 6 16 8 21 21 12 16 11 7 10 4 14 11 21 18 20 15 9 0 23 23 22 17 14 7 23 0 2 8 13 21 22 22 20 17 12 17 8 10 20 6 19 5 5 7 12 3 16 19